NAME: Random_55_3
ELLAPSED_TIME_(ms): 0
TOUR_SIZE: 1314.1008
TOUR_SECTION
0
20
3
45
12
19
43
1
8
15
18
38
30
7
46
29
24
52
35
4
51
13
49
41
14
11
6
33
27
23
32
54
36
44
31
22
42
53
47
40
17
9
37
50
34
10
25
26
39
16
28
5
21
2
48
0
EOF
